(set-info :smt-lib-version 2.6)
(set-logic QF_S)
(set-info :source |
Generated by: Joel Day, Thorsten Ehlers, Mitja Kulczynski, Federico Mora, Florin Manea, Dirk Nowotka, Danny Poulsen, Zhengyang Lu
Application: Test WOORPJE
Target solver: WOORPJE
Publications: Day, J. D., Ehlers, T., Kulczynski, M., Manea, F., Nowotka, D., & Poulsen, D. B. (2019). On solving word equations using SAT. In RP 2019
Description: Produced by generating random strings, and replacing factors with variables at random, in a coherent fashion. This guarantees the existence of a solution. The generated word equations have at most 15 variables, 10 letters, and length 300.
|)
(set-info :license "https://creativecommons.org/licenses/by/4.0/")
(set-info :category "random")
(set-info :status sat)

(declare-fun H () String)
(declare-fun E () String)
(declare-fun J () String)
(declare-fun O () String)
(declare-fun M () String)
(declare-fun D () String)
(assert (= (str.++  "ebf" E "jihfch" D "da" J "c" H J "c" D "jgc" D "aci" D "hhhh" J D "i" D "ajfefccghiahgdbjdd" D)  (str.++  O "jafijihfchjda" J "cahaecjjg" M "hh" J "ji" D "a" D "f" J "fccghiahgdbjdd" D) ))
(check-sat)

(exit)
